25 40
1 2 3
1 6 1
2 3 4
2 7 4
3 4 5
3 8 3
4 5 5
4 9 3
5 10 1
6 7 1
6 11 1
7 8 3
7 12 5
8 9 2
8 13 5
9 10 2
9 14 2
10 15 4
11 12 2
11 16 1
12 13 5
12 17 4
13 14 5
13 18 4
14 15 5
14 19 4
15 20 1
16 17 5
16 21 5
17 18 1
17 22 3
18 19 4
18 23 5
19 20 4
19 24 4
20 25 4
21 22 5
22 23 4
23 24 1
24 25 2
